8121572943766587946505,9,1,2,08,11,1,2,02,6,1,2,011,10,1,2,06,5,1,2,06,11,1,2,09,13,1,2,04,8,1,2,08,13,1,2,015,10,1,2,014,5,1,2,03,12,1,2,06,11,1,2,06,8,1,2,010,8,1,2,07,8,1,2,04,2,1,2,010,15,1,2,011,6,1,2,02,14,1,2,04,1,1,2,012,10,1,2,012,14,1,2,02,11,1,2,012,9,1,2,014,11,1,2,05,2,1,2,015,11,1,2,06,15,1,2,013,4,1,2,09,10,1,2,08,4,1,2,02,9,1,2,014,7,1,2,011,13,1,2,07,5,1,2,04,12,1,2,03,10,1,2,05,15,1,2,09,14,1,2,014,2,1,2,013,2,1,2,03,4,1,2,04,3,1,2,05,4,1,2,014,8,1,2,011,4,1,2,010,2,1,2,09,10,1,2,010,15,1,2,0